52
55
36
2493
420
38
79
114
29
51
61
169
234
64
154
56
64
230
212
149
42
213
477
750
99
451
263
264
233
67
156
27
64
278
150
48
20
154
76
91
34
56
317
61
36
22
53
70
39
216
288
190
0
1466
74
69
166
316
60
125
96
94
370
27
199
157
316
0
91
243
109
54
74
135
220
78
1085
87
0
41
839
111
49
72
0
314
111
1063
50
271
97
751
198
145
44
162
75
92
557
76
